NAME : mcpfd
COMMENT : file for mcpfd test
TYPE : ATSP
DIMENSION : 30
EDGE_WEIGHT_TYPE : EXPLICIT
EDGE_WEIGHT_FORMAT : FULL_MATRIX
EDGE_WEIGHT_SECTION
1999999 1999999 1999999 1999999 1999999 5529 1999999 1999999 1999999 1999999 1999999 1999999 1999999 1999999 5493 5509 1999999 1999999 1999999 1999999 1999999 1999999 1999999 1999999 5516 -5475 1999999 1999999 1999999 1999999 
1999999 1999999 1999999 1999999 1999999 1999999 5515 5510 1999999 1999999 1999999 1999999 1999999 1999999 1999999 1999999 -5475 5521 1999999 1999999 1999999 1999999 1999999 1999999 1999999 1999999 5496 1999999 1999999 1999999 
1999999 1999999 1999999 1999999 1999999 1999999 1999999 1999999 5496 5501 1999999 1999999 1999999 1999999 1999999 1999999 1999999 1999999 5503 -5475 1999999 1999999 1999999 1999999 1999999 1999999 1999999 5482 1999999 1999999 
1999999 1999999 1999999 1999999 1999999 1999999 1999999 1999999 1999999 1999999 -5475 5485 1999999 1999999 1999999 1999999 1999999 1999999 1999999 1999999 5509 5518 1999999 1999999 1999999 1999999 1999999 1999999 5486 1999999 
1999999 1999999 1999999 1999999 1999999 1999999 1999999 1999999 1999999 1999999 1999999 1999999 5490 5500 1999999 1999999 1999999 1999999 1999999 1999999 1999999 1999999 5511 -5475 1999999 1999999 1999999 1999999 1999999 5504 
1999999 1999999 1999999 1999999 1999999 1999999 0 5503 1999999 1999999 1999999 1999999 1999999 1999999 1999999 1999999 5508 -5475 1999999 1999999 1999999 1999999 1999999 1999999 1999999 1999999 5517 1999999 1999999 1999999 
1999999 1999999 1999999 1999999 1999999 0 1999999 1999999 1999999 1999999 1999999 1999999 1999999 1999999 5514 5508 1999999 1999999 1999999 1999999 1999999 1999999 1999999 1999999 5489 5505 1999999 1999999 1999999 1999999 
1999999 1999999 1999999 1999999 1999999 1999999 1999999 1999999 0 5493 1999999 1999999 1999999 1999999 1999999 1999999 1999999 1999999 5487 5499 1999999 1999999 1999999 1999999 1999999 1999999 1999999 5502 1999999 1999999 
1999999 1999999 1999999 1999999 1999999 1999999 5503 0 1999999 1999999 1999999 1999999 1999999 1999999 1999999 1999999 5513 5487 1999999 1999999 1999999 1999999 1999999 1999999 1999999 1999999 1999999 1999999 1999999 1999999 
1999999 1999999 1999999 1999999 1999999 1999999 1999999 1999999 1999999 1999999 0 -5475 1999999 1999999 1999999 1999999 1999999 1999999 1999999 1999999 5500 5509 1999999 1999999 1999999 1999999 1999999 1999999 5495 1999999 
1999999 1999999 1999999 1999999 1999999 1999999 1999999 1999999 5493 0 1999999 1999999 1999999 1999999 1999999 1999999 1999999 1999999 5504 5500 1999999 1999999 1999999 1999999 1999999 1999999 1999999 5497 1999999 1999999 
1999999 1999999 1999999 1999999 1999999 1999999 1999999 1999999 1999999 1999999 1999999 1999999 0 5498 1999999 1999999 1999999 1999999 1999999 1999999 1999999 1999999 5509 5479 1999999 1999999 1999999 1999999 1999999 5492 
1999999 1999999 1999999 1999999 1999999 1999999 1999999 1999999 1999999 1999999 5482 0 1999999 1999999 1999999 1999999 1999999 1999999 1999999 1999999 5500 5509 1999999 1999999 1999999 1999999 1999999 1999999 -5475 1999999 
1999999 1999999 1999999 1999999 1999999 5514 1999999 1999999 1999999 1999999 1999999 1999999 1999999 1999999 0 5512 1999999 1999999 1999999 1999999 1999999 1999999 1999999 1999999 5501 5487 1999999 1999999 1999999 1999999 
1999999 1999999 1999999 1999999 1999999 1999999 1999999 1999999 1999999 1999999 1999999 1999999 5498 0 1999999 1999999 1999999 1999999 1999999 1999999 1999999 1999999 -5475 5501 1999999 1999999 1999999 1999999 1999999 5500 
1999999 1999999 1999999 1999999 1999999 1999999 -5475 5513 1999999 1999999 1999999 1999999 1999999 1999999 1999999 1999999 0 5524 1999999 1999999 1999999 1999999 1999999 1999999 1999999 1999999 5499 1999999 1999999 1999999 
1999999 1999999 1999999 1999999 1999999 5508 1999999 1999999 1999999 1999999 1999999 1999999 1999999 1999999 5512 0 1999999 1999999 1999999 1999999 1999999 1999999 1999999 1999999 5505 5503 1999999 1999999 1999999 1999999 
1999999 1999999 1999999 1999999 1999999 1999999 1999999 1999999 5487 5504 1999999 1999999 1999999 1999999 1999999 1999999 1999999 1999999 0 5506 1999999 1999999 1999999 1999999 1999999 1999999 1999999 5509 1999999 1999999 
1999999 1999999 1999999 1999999 1999999 1999999 5506 -5475 1999999 1999999 1999999 1999999 1999999 1999999 1999999 1999999 5524 0 1999999 1999999 1999999 1999999 1999999 1999999 1999999 1999999 5503 1999999 1999999 1999999 
1999999 1999999 1999999 1999999 1999999 1999999 1999999 1999999 1999999 1999999 5500 5500 1999999 1999999 1999999 1999999 1999999 1999999 1999999 1999999 0 5493 1999999 1999999 1999999 1999999 1999999 1999999 5505 1999999 
1999999 1999999 1999999 1999999 1999999 1999999 1999999 1999999 5499 5500 1999999 1999999 1999999 1999999 1999999 1999999 1999999 1999999 5506 0 1999999 1999999 1999999 1999999 1999999 1999999 1999999 -5475 1999999 1999999 
1999999 1999999 1999999 1999999 1999999 1999999 1999999 1999999 1999999 1999999 1999999 1999999 5509 5489 1999999 1999999 1999999 1999999 1999999 1999999 1999999 1999999 0 5512 1999999 1999999 1999999 1999999 1999999 -5475 
1999999 1999999 1999999 1999999 1999999 1999999 1999999 1999999 1999999 1999999 5509 5509 1999999 1999999 1999999 1999999 1999999 1999999 1999999 1999999 5493 0 1999999 1999999 1999999 1999999 1999999 1999999 5508 1999999 
1999999 1999999 1999999 1999999 1999999 5489 1999999 1999999 1999999 1999999 1999999 1999999 1999999 1999999 5501 5505 1999999 1999999 1999999 1999999 1999999 1999999 1999999 1999999 0 5492 1999999 1999999 1999999 1999999 
1999999 1999999 1999999 1999999 1999999 1999999 1999999 1999999 1999999 1999999 1999999 1999999 1999999 -5475 1999999 1999999 1999999 1999999 1999999 1999999 1999999 1999999 5512 0 1999999 1999999 1999999 1999999 1999999 5493 
0 0 0 0 0 1999999 1999999 1999999 1999999 1999999 1999999 1999999 1999999 1999999 1999999 1999999 1999999 1999999 1999999 1999999 1999999 1999999 1999999 1999999 1999999 0 1999999 1999999 1999999 1999999 
0 0 0 0 0 1999999 1999999 1999999 1999999 1999999 1999999 1999999 1999999 1999999 1999999 1999999 1999999 1999999 1999999 1999999 1999999 1999999 1999999 1999999 1999999 1999999 0 1999999 1999999 1999999 
0 0 0 0 0 1999999 1999999 1999999 1999999 1999999 1999999 1999999 1999999 1999999 1999999 1999999 1999999 1999999 1999999 1999999 1999999 1999999 1999999 1999999 1999999 1999999 1999999 0 1999999 1999999 
0 0 0 0 0 1999999 1999999 1999999 1999999 1999999 1999999 1999999 1999999 1999999 1999999 1999999 1999999 1999999 1999999 1999999 1999999 1999999 1999999 1999999 1999999 1999999 1999999 1999999 0 1999999 
0 0 0 0 0 1999999 1999999 1999999 1999999 1999999 1999999 1999999 1999999 1999999 1999999 1999999 1999999 1999999 1999999 1999999 1999999 1999999 1999999 1999999 1999999 1999999 1999999 1999999 1999999 0 
